language ESSENCE' 1.0

letting pos_FunctionND be
        [[1, 3; int(1..2)], [4, 7; int(1..2)], [8, 12; int(1..2)], [9, 14; int(1..2)], [5, 11; int(1..2)],
         [6, 13; int(1..2)], [2, 10; int(1..2)];
             int(1..7)]
$ Visualisation for pos_FunctionND
$  1  3
$  4  7
$  8 12
$  9 14
$  5 11
$  6 13
$  2 10

letting seq_ExplicitBounded_Length be 14
letting seq_ExplicitBounded_Values be [1, 7, 1, 2, 5, 6, 2, 3, 4, 7, 5, 3, 6, 4; int(1..14)]
